Argumentos: 
./solver.release -i 26 -t 86400 -a 7 -h 86400 -w Testes/R2-i26 -m R2_modeloCom2345.mod -o R2_modeloCom2345.mod 
Seed: 1623016528
hidden-TXT/Sc-n110w4.txt
hidden-TXT/H0-n110w4-1.txt
hidden-TXT/WD-n110w4-4.txt hidden-TXT/WD-n110w4-8.txt hidden-TXT/WD-n110w4-7.txt hidden-TXT/WD-n110w4-2.txt 
Reading model section from R2_modeloCom2345.mod...
367 lines were read
Reading data section from Testes/R2-i26/26.dat...
19773 lines were read
Generating obj...
Generating H1turnoDia...
Generating H2coberturaMinima...
Generating H3AsucessaoTurnos...
Generating H3BsucessaoTurnos...
Generating H4qualificacao...
Generating S1coberturaOtima...
Generating S2d...
Generating S2dHist...
Generating S2b...
Generating S2bHist...
Generating auxS5...
Generating S6a...
Generating S6b...
Generating auxS7...
Generating S7...
Model has been successfully generated
Writing problem data to `Testes/R2-i26/26.lp'...
513804 lines were written
CPX0000  Tried aggregator 2 times.
CPX0000  MIP Presolve eliminated 21915 rows and 78850 columns.
CPX0000  MIP Presolve modified 5930 coefficients.
CPX0000  Aggregator did 13 substitutions.
CPX0000  Reduced MIP has 23439 rows, 33964 columns, and 299666 nonzeros.
CPX0000  Reduced MIP has 33324 binaries, 640 generals, 0 SOSs, and 0 indicators.
CPX0000  Presolve time = 0.56 sec. (330.29 ticks)
CPX0000  Found incumbent of value 637755.000000 after 1.25 sec. (911.66 ticks)
[1m[30m[ZEN] [0m00:00:01 [1m[34m 637755.00[1m[32m  100.00%
[0mCPX0000  Probing time = 0.03 sec. (11.11 ticks)
CPX0000  Tried aggregator 1 time.
CPX0000  Reduced MIP has 23439 rows, 33964 columns, and 299666 nonzeros.
CPX0000  Reduced MIP has 33324 binaries, 640 generals, 0 SOSs, and 0 indicators.
CPX0000  Presolve time = 0.15 sec. (109.59 ticks)
CPX0000  Probing time = 0.04 sec. (10.49 ticks)
CPX0000  Clique table members: 14944.
CPX0000  MIP emphasis: balance optimality and feasibility.
CPX0000  MIP search method: dynamic search.
CPX0000  Parallel mode: none, using 1 thread.
CPX0000  Root relaxation solution time = 3.88 sec. (2000.91 ticks)
CPX0000
CPX0000          Nodes                                         Cuts/
CPX0000     Node  Left     Objective  IInf  Best Integer    Best Bound    ItCnt     Gap
CPX0000
CPX0000  *     0+    0                       637755.0000        0.0000     9031  100.00%
CPX0000        0     0      700.0000   936   637755.0000      700.0000     9031   99.89%
CPX0000        0     0      805.0000  1445   637755.0000    Cuts: 1297    13590   99.87%
CPX0000        0     0      902.5238  1620   637755.0000     Cuts: 688    17886   99.86%
CPX0000        0     0      922.0476  1625   637755.0000     Cuts: 617    23097   99.86%
CPX0000  *     0+    0                       181460.0000      922.0476    23097   99.49%
[1m[30m[ZEN] [0m00:00:27 [1m[34m 181460.00[1m[32m   99.49%
[0mCPX0000        0     0      930.6667  1733   181460.0000     Cuts: 432    28342   99.49%
CPX0000        0     0      931.3333  1857   181460.0000     Cuts: 463    31641   99.49%
CPX0000        0     0      931.3333  1803   181460.0000     Cuts: 374    36566   99.49%
CPX0000        0     0      936.3333  1807   181460.0000     Cuts: 342    40635   99.48%
CPX0000        0     0      944.0000  1617   181460.0000     Cuts: 372    45038   99.48%
CPX0000        0     0      946.3333  1548   181460.0000     Cuts: 291    49037   99.48%
CPX0000        0     0      948.0000  1528   181460.0000     Cuts: 232    52512   99.48%
CPX0000        0     0      957.2857  1546   181460.0000     Cuts: 215    55872   99.47%
CPX0000        0     0      968.0000  1479   181460.0000     Cuts: 231    59353   99.47%
CPX0000        0     0      969.0000  1399   181460.0000     Cuts: 242    61864   99.47%
CPX0000        0     0      969.0000  1467   181460.0000     Cuts: 153    65302   99.47%
CPX0000        0     0      974.0000   832   181460.0000      Cuts: 65    66419   99.46%
CPX0000        0     0      974.0000   976   181460.0000     Cuts: 224    67587   99.46%
CPX0000  *     0+    0                         1100.0000      974.0000    67587   11.45%
CPX0000  *     0+    0                         1080.0000      974.0000    67587    9.81%
CPX0000  *     0+    0                         1050.0000      974.0000    67587    7.24%
[1m[30m[ZEN] [0m00:01:39 [1m[34m   1050.00[1m[32m    7.24%
[0mCPX0000        0     2      974.0000   590     1050.0000      975.0000    67587    7.14%
CPX0000  Elapsed time = 99.62 sec. (51046.96 ticks, tree = 0.00 MB
CPX0000        1     3      975.5000   710     1050.0000      975.5000    68419    7.10%
CPX0000        2     4      976.5000   686     1050.0000      975.5000    69208    7.10%
CPX0000        5     7      978.0000   609     1050.0000      975.5000    69837    7.10%
CPX0000       10    12      978.0000   713     1050.0000      975.5000    70359    7.10%
CPX0000       15    17      978.0000   683     1050.0000      975.5000    71773    7.10%
CPX0000       19    21      978.8333   650     1050.0000      975.5000    72885    7.10%
CPX0000       20    22      978.8333   647     1050.0000      975.5000    73077    7.10%
CPX0000       26    28      978.8333   619     1050.0000      975.5000    73985    7.10%
CPX0000       32    34      978.8333   670     1050.0000      975.5000    74586    7.10%
CPX0000       62    64      980.5000   544     1050.0000      975.5000    78137    7.10%
CPX0000  Elapsed time = 107.11 sec. (55098.15 ticks, tree = 15.34 MB
CPX0000       79    81      983.1667   644     1050.0000      975.5000    82470    7.10%
CPX0000      104   106     1000.0000   337     1050.0000      975.5000    85543    7.10%
CPX0000      115   117     1015.0000   161     1050.0000      975.5000    88047    7.10%
CPX0000      139   141     1020.0000    29     1050.0000      975.5000    90247    7.10%
CPX0000      155   157     1020.0000    64     1050.0000      975.5000    92335    7.10%
CPX0000      180   182     1020.0000    33     1050.0000      975.5000    94382    7.10%
CPX0000      200   202     1020.0000   144     1050.0000      975.5000    96893    7.10%
CPX0000      231   233     1020.0000    76     1050.0000      975.5000    99719    7.10%
CPX0000      260   262     1020.0000    22     1050.0000      975.5000   102086    7.10%
CPX0000      283   285     1020.0000   120     1050.0000      975.5000   106306    7.10%
CPX0000  Elapsed time = 126.11 sec. (65320.60 ticks, tree = 73.62 MB
CPX0000      296   298     1020.0000    92     1050.0000      975.5000   109231    7.10%
CPX0000      320   322     1020.0000     4     1050.0000      975.5000   111448    7.10%
CPX0000      328   330     1020.0000   108     1050.0000      975.5000   115327    7.10%
CPX0000      337   339     1020.0000    58     1050.0000      975.5000   118666    7.10%
CPX0000      344   346     1020.0000   121     1050.0000      975.5000   120636    7.10%
CPX0000      350   352     1030.0000    60     1050.0000      975.5000   122900    7.10%
CPX0000      359   361     1030.0000     1     1050.0000      975.5000   125191    7.10%
CPX0000  *   360+  342                         1030.0000      975.5000   125227    5.29%
[1m[30m[ZEN] [0m00:02:19 [1m[34m   1030.00[1m[32m    5.29%
[0mCPX0000      376   357      988.8333   634     1030.0000      975.5000   127562    5.29%
CPX0000      405   386     1018.0000   461     1030.0000      975.5000   130062    5.29%
CPX0000      417   395      980.5000   646     1030.0000      975.5000   132562    5.29%
CPX0000  Elapsed time = 144.59 sec. (75293.28 ticks, tree = 106.63 MB
CPX0000      440   418     1014.0000   473     1030.0000      975.5000   135174    5.29%
CPX0000  *   460+  200                         1020.0000      975.5000   135774    4.36%
[1m[30m[ZEN] [0m00:02:27 [1m[34m   1020.00[1m[32m    4.36%
[0mCPX0000      469   208      991.5000   571     1020.0000      975.5000   137625    4.36%
CPX0000      496   235      996.5000   596     1020.0000      975.5000   139558    4.36%
CPX0000      536   272      975.5000   714     1020.0000      975.5000   142232    4.36%
CPX0000      548   284      978.0000   690     1020.0000      975.5000   144317    4.36%
CPX0000      550   286      978.0000   678     1020.0000      975.5000   144416    4.36%
CPX0000      567   303      989.8333   608     1020.0000      975.5000   146919    4.36%
CPX0000  *   570   202      integral     0     1020.0000     1011.9643   180748    0.79%
CPX0000
CPX0000  GUB cover cuts applied:  578
CPX0000  Clique cuts applied:  784
CPX0000  Cover cuts applied:  32
CPX0000  Implied bound cuts applied:  3
CPX0000  Mixed integer rounding cuts applied:  116
CPX0000  Zero-half cuts applied:  434
CPX0000  Lift and project cuts applied:  6
CPX0000  Gomory fractional cuts applied:  57
CPX0000
CPX0000  Root node processing (before b&c):
CPX0000    Real time             =   99.54 sec. (50987.22 ticks)
CPX0000  Sequential b&c:
CPX0000    Real time             =   90.88 sec. (51195.53 ticks)
CPX0000                            ------------
CPX0000  Total (root+branch&cut) =  190.42 sec. (102182.75 ticks)
H2 understaffing: 0
H3 shiftTypeSuccessions: 0
S1 optimalCoverage: 30
S2a consecutiveShift: 18495 = (1233,0 )
S2b consecutiveWorkingDays: 25080 = ( 836,0 )
S3 consecutiveDaysOff: 16950 = ( 565,0 )
S4 preferences: 110
S5 completeWeekend: 0
S6 totalAssignments: 880
S7 totalWorkingWeekeends: 0
 

Cost Solution: 61545

       |M|T|W|T|F|S|S| |M|T|W|T|F|S|S| |M|T|W|T|F|S|S| |M|T|W|T|F|S|S|
------------------------------------------------------------------------
HN_0   |L|L|L|L|L|N|N| |-|-|L|L|-|D|L| |-|E|-|-|D|-|-| |N|-|L|-|-|-|-|
HN_1   |-|D|L|-|-|-|-| |-|E|-|-|-|-|-| |E|-|E|-|-|-|-| |D|E|N|-|-|-|E|
HN_2   |-|-|E|L|-|-|-| |-|-|L|N|N|-|-| |-|-|D|E|-|-|-| |-|-|E|D|-|N|-|
HN_3   |-|E|D|D|N|-|-| |E|D|E|D|D|-|-| |D|D|L|L|-|D|E| |D|N|-|L|L|N|N|
HN_4   |-|L|N|-|-|-|-| |N|N|-|E|-|-|-| |-|-|-|D|D|E|D| |-|E|-|E|E|-|-|
HN_5   |E|D|N|-|E|-|-| |D|-|-|-|E|-|-| |N|N|-|E|E|-|-| |-|-|-|D|-|-|-|
HN_6   |-|N|-|D|D|D|D| |-|N|-|D|D|D|L| |N|-|-|L|N|-|-| |-|-|E|-|E|-|-|
HN_7   |N|N|-|E|-|D|E| |D|D|N|-|-|L|L| |-|-|E|E|-|-|-| |N|N|-|-|E|-|-|
HN_8   |L|-|L|N|-|-|-| |D|D|E|-|-|E|E| |E|E|E|-|L|L|L| |-|-|N|-|-|-|-|
HN_9   |-|D|L|-|L|-|-| |L|-|E|-|E|L|N| |-|L|-|-|L|-|-| |L|-|E|D|-|-|-|
HN_10  |L|-|N|N|N|-|-| |-|D|D|D|-|-|-| |E|-|D|-|E|-|-| |-|D|D|N|-|D|E|
HN_11  |-|-|-|N|-|-|-| |L|-|E|D|-|-|-| |L|-|-|-|L|-|-| |-|-|N|N|N|-|D|
HN_12  |E|-|N|-|D|E|L| |-|-|-|E|-|-|-| |-|-|-|-|L|-|-| |E|L|L|L|-|-|-|
HN_13  |-|E|D|-|N|-|-| |E|-|D|L|-|E|D| |-|-|-|-|E|D|E| |L|N|N|N|-|-|-|
HN_14  |E|E|E|D|-|L|L| |-|-|-|E|D|-|-| |D|-|-|L|-|-|-| |-|L|-|-|-|-|-|
HN_15  |L|N|N|-|E|-|-| |N|N|-|E|N|-|-| |D|N|-|L|-|-|-| |-|D|D|N|-|L|L|
HN_16  |E|E|D|D|D|-|-| |E|E|L|N|N|-|-| |E|D|E|E|-|N|N| |N|-|D|E|D|E|L|
HN_17  |D|L|-|-|-|-|-| |E|-|L|-|L|-|-| |N|-|E|N|-|-|-| |-|E|L|-|L|-|-|
HN_18  |N|-|E|D|D|-|-| |L|L|N|N|N|-|-| |D|N|N|N|-|L|L| |L|L|-|E|D|E|D|
HN_19  |-|D|D|E|D|-|-| |-|E|D|D|E|-|-| |N|N|-|-|D|N|N| |-|-|E|-|L|-|-|
NU_20  |N|-|E|-|N|-|-| |-|-|-|E|-|-|-| |N|-|D|-|E|L|L| |-|N|-|N|-|-|-|
NU_21  |N|-|L|N|N|N|N| |-|E|D|E|D|-|-| |E|E|D|D|D|-|-| |D|L|L|L|-|D|E|
NU_22  |D|E|E|L|N|-|-| |D|D|N|N|N|-|-| |L|L|L|-|E|D|E| |N|-|E|L|L|L|L|
NU_23  |L|L|-|-|-|-|-| |-|N|N|-|-|-|-| |-|E|N|-|E|-|-| |E|D|D|N|-|-|-|
NU_24  |-|-|-|E|L|-|-| |L|L|-|-|D|-|-| |-|D|D|L|-|D|L| |-|-|-|E|-|-|-|
NU_25  |-|N|-|-|-|-|-| |E|D|D|N|-|-|-| |L|-|L|L|-|N|N| |-|E|E|L|-|-|-|
NU_26  |-|-|E|-|-|-|-| |-|-|N|-|-|-|-| |-|L|-|-|-|-|-| |D|L|-|-|D|-|D|
NU_27  |-|L|-|-|-|-|-| |E|E|L|-|L|N|-| |E|-|-|-|-|-|-| |-|L|L|-|-|-|-|
NU_28  |-|D|-|-|D|E|N| |-|-|-|-|E|-|-| |-|-|D|E|E|-|-| |D|-|-|D|D|-|-|
NU_29  |-|D|-|N|-|-|-| |-|L|-|L|-|D|E| |E|D|L|-|-|E|D| |E|-|D|D|E|-|-|
NU_30  |D|-|L|-|-|-|-| |L|-|-|-|-|E|D| |-|D|D|L|-|-|-| |L|-|L|-|L|-|-|
NU_31  |N|-|D|-|N|-|-| |-|L|L|N|-|-|-| |-|-|N|-|D|-|-| |E|-|N|-|N|-|-|
NU_32  |N|N|-|D|L|N|N| |N|-|N|N|N|N|N| |-|N|N|N|N|-|-| |L|N|N|N|N|-|-|
NU_33  |N|-|L|L|L|L|L| |-|E|E|E|L|-|-| |D|D|E|E|D|-|-| |E|E|D|-|E|L|L|
NU_34  |-|L|-|-|L|-|-| |-|-|-|E|-|-|-| |N|-|-|-|-|-|-| |D|N|-|-|-|-|D|
NU_35  |D|N|N|-|D|E|E| |L|-|-|D|-|E|N| |-|E|D|E|-|-|-| |N|-|-|-|N|-|-|
NU_36  |-|-|-|D|-|-|-| |E|-|N|-|-|-|-| |D|-|E|D|E|-|-| |-|-|D|-|D|N|N|
NU_37  |E|-|N|-|L|-|-| |-|N|-|-|-|-|-| |-|L|N|N|-|D|E| |-|-|-|D|L|-|-|
NU_38  |L|N|N|-|E|E|D| |D|L|-|L|L|-|-| |L|L|L|L|N|-|-| |D|-|D|D|D|E|E|
NU_39  |-|L|-|E|-|-|-| |N|-|-|D|E|N|N| |-|D|E|E|N|-|-| |-|E|D|D|E|-|-|
CT_40  |-|-|-|E|-|-|-| |-|-|-|-|N|-|-| |-|-|-|-|L|-|-| |-|E|-|N|-|-|-|
CT_41  |-|-|N|-|-|-|E| |-|-|-|L|-|-|-| |-|L|-|-|-|-|-| |D|-|-|E|-|-|-|
CT_42  |E|E|-|E|E|E|E| |-|E|D|L|L|-|-| |E|E|E|E|D|-|-| |N|-|E|D|E|L|L|
CT_43  |-|-|-|N|-|-|-| |L|L|-|-|-|-|-| |-|-|N|-|-|-|E| |-|-|-|L|-|-|-|
CT_44  |-|N|-|L|-|-|-| |L|N|-|-|-|L|L| |L|-|-|L|-|-|-| |D|-|L|L|-|-|-|
CT_45  |-|D|-|N|-|-|-| |D|D|-|E|D|N|N| |-|N|-|-|D|D|D| |-|D|-|E|E|-|-|
CT_46  |N|-|-|N|-|-|-| |D|-|D|E|-|E|E| |E|D|-|-|-|-|-| |-|-|E|-|N|-|-|
CT_47  |E|D|-|D|D|-|-| |D|D|E|D|D|-|-| |L|L|L|-|D|N|N| |N|N|-|E|E|D|E|
CT_48  |E|E|N|-|E|-|-| |-|E|-|-|-|-|-| |-|E|-|-|L|-|-| |L|N|-|L|N|-|-|
CT_49  |E|E|D|L|L|-|-| |E|N|N|N|N|-|-| |N|N|-|E|E|L|L| |L|-|D|D|D|D|L|
CT_50  |L|-|E|-|-|-|-| |L|-|E|-|E|E|E| |N|-|E|-|-|-|-| |D|D|L|N|-|E|E|
CT_51  |E|-|E|L|-|-|-| |-|-|L|L|-|D|D| |E|-|N|-|-|-|-| |-|L|-|-|N|-|-|
CT_52  |-|L|L|L|-|L|L| |L|-|E|L|L|-|-| |L|N|-|L|N|-|-| |-|-|N|-|D|-|-|
CT_53  |-|E|-|-|-|N|N| |N|-|L|N|-|-|-| |-|-|D|D|-|-|-| |N|N|-|-|L|-|-|
CT_54  |N|-|D|D|D|N|N| |-|E|D|D|L|-|-| |D|D|D|E|E|-|-| |E|-|E|L|N|N|N|
CT_55  |-|-|D|-|-|-|-| |-|-|-|L|-|-|-| |E|N|-|-|-|-|E| |-|L|-|-|-|-|-|
CT_56  |L|-|L|-|-|-|E| |-|-|-|-|L|-|-| |-|-|-|N|-|-|-| |-|L|N|-|E|-|-|
CT_57  |D|E|L|-|E|-|-| |-|D|-|E|-|-|-| |-|-|-|L|L|-|-| |-|-|N|N|N|-|-|
CT_58  |N|-|-|-|-|-|-| |-|L|-|-|-|-|-| |-|-|N|-|D|-|-| |-|-|-|E|N|-|-|
CT_59  |N|-|D|N|-|-|-| |L|-|E|-|E|E|N| |N|N|-|D|L|-|-| |-|E|N|-|L|-|-|
CT_60  |-|-|D|-|D|-|-| |-|-|D|L|-|D|L| |-|-|D|-|E|-|-| |E|D|L|-|-|-|-|
CT_61  |-|N|-|-|E|-|-| |-|-|-|-|D|N|-| |-|L|-|-|-|-|-| |-|-|D|-|-|-|-|
CT_62  |E|E|E|D|D|-|-| |L|L|L|N|N|-|-| |D|E|E|E|-|E|E| |D|E|L|-|D|E|D|
CT_63  |E|L|N|-|-|L|L| |N|N|-|L|-|-|-| |-|E|D|D|L|-|-| |D|N|-|L|-|-|-|
CT_64  |-|D|L|L|L|-|-| |-|-|D|-|-|-|-| |-|L|-|-|-|L|L| |-|D|-|E|N|-|-|
CT_65  |D|D|D|L|N|-|-| |E|D|D|D|E|-|-| |N|N|-|D|D|D|D| |L|-|E|D|L|N|N|
CT_66  |-|-|-|E|D|-|-| |N|N|-|D|E|L|L| |L|-|E|D|N|-|-| |N|-|-|L|L|-|-|
CT_67  |-|-|N|-|-|L|-| |N|-|-|-|-|-|-| |-|N|-|-|-|-|-| |-|-|N|-|-|-|-|
CT_68  |-|-|L|N|-|-|-| |D|D|L|-|D|-|-| |N|-|-|N|-|-|-| |-|-|-|-|L|N|N|
CT_69  |-|-|D|-|-|-|-| |-|D|-|-|D|D|D| |N|-|L|N|N|-|-| |-|-|E|D|-|-|-|
CT_70  |D|E|-|D|E|D|D| |N|-|E|-|E|E|L| |-|-|-|N|N|-|-| |-|D|N|-|-|-|-|
CT_71  |L|-|-|E|-|-|-| |-|-|-|L|L|-|-| |-|-|L|-|-|-|-| |-|-|-|L|-|-|D|
CT_72  |-|-|L|-|N|-|-| |N|-|-|-|D|-|-| |D|E|-|L|-|-|D| |-|-|-|-|-|-|-|
CT_73  |D|-|-|N|-|-|-| |-|-|-|-|N|-|-| |-|-|-|-|L|-|-| |-|D|-|N|-|-|-|
CT_74  |-|-|N|-|-|-|-| |E|-|-|-|L|L|-| |-|D|E|-|-|-|-| |N|-|-|-|-|-|-|
CT_75  |D|-|E|D|-|D|D| |-|L|N|-|E|-|-| |D|D|-|N|N|-|-| |-|L|L|-|D|-|-|
CT_76  |N|N|-|D|E|D|D| |-|L|L|N|N|-|-| |E|D|L|L|L|-|-| |E|E|D|N|-|E|D|
CT_77  |E|D|E|E|N|-|-| |E|E|L|N|N|-|-| |L|L|N|N|-|N|N| |N|N|N|-|D|D|D|
CT_78  |L|L|L|-|D|-|-| |N|N|N|N|N|-|-| |D|N|N|-|D|E|D| |E|E|-|E|D|L|L|
CT_79  |-|-|-|-|L|-|-| |E|-|-|-|-|-|-| |-|E|-|-|-|N|-| |-|-|-|-|E|-|-|
TR_80  |E|D|E|-|-|-|-| |E|E|E|E|E|-|-| |L|L|-|-|D|-|-| |-|E|D|E|L|-|-|
TR_81  |E|E|E|-|-|-|-| |E|-|-|E|E|N|N| |-|E|-|N|-|-|-| |-|-|-|N|-|-|-|
TR_82  |-|-|-|L|-|-|-| |D|-|-|L|-|E|E| |-|E|L|L|-|-|-| |-|E|N|-|N|-|-|
TR_83  |-|D|-|D|-|D|E| |L|L|N|N|-|-|-| |N|-|-|D|D|E|N| |-|-|E|-|D|-|-|
TR_84  |D|-|E|E|-|D|E| |D|-|N|-|D|-|-| |N|-|N|-|-|D|N| |-|L|L|-|E|-|-|
TR_85  |-|D|-|-|-|-|-| |-|N|-|-|-|-|-| |D|-|-|-|-|N|-| |-|L|-|-|-|-|-|
TR_86  |-|-|D|-|L|-|-| |-|L|-|L|-|D|D| |-|E|L|-|L|-|-| |-|-|L|L|-|-|-|
TR_87  |-|-|N|N|-|-|-| |N|-|E|E|L|-|-| |N|-|D|-|D|E|E| |N|N|N|-|N|-|-|
TR_88  |-|E|D|-|D|-|-| |N|-|-|-|L|L|L| |-|L|N|-|L|-|-| |L|L|-|D|-|E|E|
TR_89  |D|D|-|E|E|N|N| |N|-|L|L|L|N|N| |-|E|E|E|E|-|-| |D|E|E|E|N|-|-|
TR_90  |-|N|-|N|-|-|-| |E|-|N|-|-|-|-| |L|-|D|L|L|L|L| |-|N|-|-|-|-|-|
TR_91  |N|-|D|E|N|N|N| |-|L|L|L|N|-|-| |D|D|E|L|L|-|-| |E|E|E|N|-|N|N|
TR_92  |-|N|-|-|-|-|-| |-|N|-|-|-|-|-| |-|-|L|-|-|N|-| |L|-|-|-|-|-|-|
TR_93  |D|D|-|-|-|-|-| |L|-|-|D|D|-|-| |N|-|-|-|N|-|-| |L|N|-|D|L|-|-|
TR_94  |N|-|D|N|-|-|-| |N|N|N|-|-|-|-| |-|N|-|-|-|-|-| |D|D|-|D|N|-|-|
TR_95  |L|-|-|-|-|-|-| |N|-|-|-|-|-|-| |-|N|-|-|-|E|-| |-|L|-|-|-|-|-|
TR_96  |E|E|E|N|-|-|-| |-|D|E|N|-|D|E| |E|E|-|-|D|-|-| |L|-|L|-|E|-|-|
TR_97  |L|L|-|D|D|L|L| |-|E|D|E|N|-|-| |E|D|E|N|N|-|-| |L|L|-|E|D|L|L|
TR_98  |-|N|-|D|D|E|D| |D|-|E|N|-|E|E| |-|L|-|-|L|-|-| |E|L|-|L|-|-|-|
TR_99  |D|L|L|L|N|-|-| |-|E|-|D|D|-|-| |E|L|N|-|-|-|-| |E|D|D|-|D|-|-|
TR_100 |L|N|N|N|N|-|-| |E|D|E|D|D|-|-| |L|L|L|L|-|D|D| |D|-|N|N|N|N|N|
TR_101 |E|L|L|L|N|-|-| |E|E|L|N|N|-|-| |N|N|N|-|E|D|D| |N|-|D|D|D|E|D|
TR_102 |-|-|-|-|N|-|E| |-|-|-|-|E|-|-| |-|-|-|E|-|-|-| |-|-|-|L|-|-|-|
TR_103 |-|E|-|-|-|-|-| |-|L|-|E|L|-|-| |-|D|-|D|D|L|N| |-|-|D|-|E|-|-|
TR_104 |L|N|N|-|E|D|L| |-|D|D|E|E|-|-| |D|D|D|E|E|-|-| |N|N|N|N|-|D|D|
TR_105 |-|L|N|-|L|-|-| |-|-|L|L|-|D|L| |L|-|D|N|-|-|-| |N|-|L|-|E|L|L|
TR_106 |N|-|E|E|D|E|D| |-|D|D|D|N|-|-| |D|D|E|E|N|-|-| |D|D|E|E|-|D|E|
TR_107 |L|L|L|L|L|-|-| |L|N|-|D|-|-|-| |-|N|-|D|N|-|-| |N|-|E|E|L|-|-|
TR_108 |-|-|-|-|-|N|-| |-|-|N|-|-|-|-| |-|-|-|N|-|-|-| |-|D|L|-|-|-|-|
TR_109 |N|-|D|E|E|-|-| |D|L|L|L|-|-|-| |E|-|D|D|E|-|-| |-|-|D|N|N|-|-|


Hard constraint violations
--------------------------

Minimal coverage constraints: 0
Required skill constraints: 0
Illegal shift type succession constraints: 0
Single assignment per day: 0


Cost per constraint type
------------------------

Total assignment constraints: 880
Consecutive constraints: 43575
Non working days constraints: 16950
Preferences: 110
Max working weekend: 0
Complete weekends: 0
Optimal coverage constraints: 30

------------------------

Total cost: 61545
